; benchmark generated from python API
(set-info :status unknown)
(declare-fun x_epoch () Int)
(declare-fun y_epoch () Int)
(declare-fun x_plus_epoch () Int)
(declare-fun x_plus_month () Int)
(declare-fun x_plus_year () Int)
(declare-fun x_plus_day () Int)
(assert
 (>= x_epoch (- 36584)))
(assert
 (<= x_epoch 36829))
(assert
 (>= y_epoch (- 36584)))
(assert
 (<= y_epoch 36829))
(assert
 (= x_epoch 7990))
(assert
 (>= x_plus_epoch (- 36584)))
(assert
 (<= x_plus_epoch 36829))
(assert
 (let (($x371 (= x_plus_month 11)))
 (let (($x557 (= x_plus_month 9)))
 (let (($x767 (= x_plus_month 6)))
 (let (($x464 (= x_plus_month 4)))
 (let ((?x1105 (ite (or $x464 $x767 $x557 $x371) 30 31)))
 (let (($x316 (= (mod x_plus_year 400) 0)))
 (let (($x1150 (= (mod x_plus_year 4) 0)))
 (let (($x451 (or (and $x1150 (and (distinct (mod x_plus_year 100) 0) true)) $x316)))
 (let (($x1256 (= x_plus_month 2)))
 (let (($x441 (>= x_plus_day 1)))
 (let (($x3269 (<= x_plus_month 12)))
 (let (($x797 (>= x_plus_month 1)))
 (let (($x683 (<= x_plus_year 2100)))
 (let (($x853 (>= x_plus_year 1900)))
 (and $x853 $x683 $x797 $x3269 $x441 (<= x_plus_day (ite $x1256 (ite $x451 29 28) ?x1105))))))))))))))))))
(assert
 (let (($x316 (= (mod x_plus_year 400) 0)))
 (let (($x1150 (= (mod x_plus_year 4) 0)))
 (let (($x451 (or (and $x1150 (and (distinct (mod x_plus_year 100) 0) true)) $x316)))
 (let (($x255 (= 2 x_plus_month)))
 (let ((?x461 (ite $x255 (ite $x451 31 31) (ite (= 1 x_plus_month) (ite $x451 0 0) 0))))
 (let (($x204 (= 3 x_plus_month)))
 (let (($x546 (= 4 x_plus_month)))
 (let ((?x447 (ite $x546 (ite $x451 91 90) (ite $x204 (ite $x451 60 59) ?x461))))
 (let (($x207 (= 5 x_plus_month)))
 (let (($x505 (= 6 x_plus_month)))
 (let ((?x318 (ite $x505 (ite $x451 152 151) (ite $x207 (ite $x451 121 120) ?x447))))
 (let (($x954 (= 7 x_plus_month)))
 (let (($x761 (= 8 x_plus_month)))
 (let ((?x210 (ite $x761 (ite $x451 213 212) (ite $x954 (ite $x451 182 181) ?x318))))
 (let (($x228 (= 9 x_plus_month)))
 (let (($x591 (= 10 x_plus_month)))
 (let ((?x848 (ite $x591 (ite $x451 274 273) (ite $x228 (ite $x451 244 243) ?x210))))
 (let (($x638 (= 11 x_plus_month)))
 (let (($x434 (= 12 x_plus_month)))
 (let ((?x301 (ite $x434 (ite $x451 335 334) (ite $x638 (ite $x451 305 304) ?x848))))
 (let ((?x225 (+ (* 365 (- x_plus_year 1)) (div (- x_plus_year 1) 4))))
 (let ((?x937 (+ (- ?x225 (div (- x_plus_year 1) 100)) (div (- x_plus_year 1) 400))))
 (= x_plus_epoch (- (+ (+ ?x937 ?x301) (- x_plus_day 1)) 730179)))))))))))))))))))))))))
(assert
 (let ((?x1885 (+ x_epoch 730179)))
 (let ((?x955 (mod ?x1885 146097)))
 (let ((?x3291 (div ?x955 36524)))
 (let ((?x2830 (ite (<= 4 ?x3291) 3 ?x3291)))
 (let ((?x785 (- ?x955 (* ?x2830 36524))))
 (let ((?x456 (mod ?x785 1461)))
 (let ((?x2088 (div ?x456 365)))
 (let ((?x374 (ite (<= 4 ?x2088) 3 ?x2088)))
 (let ((?x1234 (+ (+ (* (div ?x1885 146097) 400) (* ?x2830 100)) (* (div ?x785 1461) 4))))
 (let ((?x711 (+ (+ ?x1234 ?x374) 1)))
 (let (($x976 (or (and (= (mod ?x711 4) 0) (and (distinct (mod ?x711 100) 0) true)) (= (mod ?x711 400) 0))))
 (let ((?x678 (- ?x456 (* ?x374 365))))
 (let ((?x2492 (ite $x976 31 31)))
 (let (($x889 (>= ?x678 ?x2492)))
 (let ((?x2674 (ite $x889 (+ (- ?x678 ?x2492) 1) (+ (- ?x678 (ite $x976 0 0)) 1))))
 (let ((?x810 (ite $x976 60 59)))
 (let (($x899 (>= ?x678 ?x810)))
 (let ((?x401 (ite $x976 91 90)))
 (let (($x786 (>= ?x678 ?x401)))
 (let ((?x2597 (ite $x786 (+ (- ?x678 ?x401) 1) (ite $x899 (+ (- ?x678 ?x810) 1) ?x2674))))
 (let ((?x528 (ite $x976 121 120)))
 (let (($x2886 (>= ?x678 ?x528)))
 (let ((?x896 (ite $x976 152 151)))
 (let (($x1708 (>= ?x678 ?x896)))
 (let ((?x280 (ite $x1708 (+ (- ?x678 ?x896) 1) (ite $x2886 (+ (- ?x678 ?x528) 1) ?x2597))))
 (let ((?x256 (ite $x976 182 181)))
 (let (($x1420 (>= ?x678 ?x256)))
 (let ((?x567 (ite $x976 213 212)))
 (let (($x234 (>= ?x678 ?x567)))
 (let ((?x2628 (ite $x234 (+ (- ?x678 ?x567) 1) (ite $x1420 (+ (- ?x678 ?x256) 1) ?x280))))
 (let ((?x1440 (ite $x976 244 243)))
 (let (($x661 (>= ?x678 ?x1440)))
 (let ((?x229 (ite $x976 274 273)))
 (let (($x837 (>= ?x678 ?x229)))
 (let ((?x801 (ite $x837 (+ (- ?x678 ?x229) 1) (ite $x661 (+ (- ?x678 ?x1440) 1) ?x2628))))
 (let ((?x1705 (ite $x976 305 304)))
 (let (($x2364 (>= ?x678 ?x1705)))
 (let ((?x2685 (ite $x976 335 334)))
 (let (($x2194 (>= ?x678 ?x2685)))
 (let ((?x649 (ite $x2194 (+ (- ?x678 ?x2685) 1) (ite $x2364 (+ (- ?x678 ?x1705) 1) ?x801))))
 (let ((?x2687 (* 0 12)))
 (let ((?x3436 (+ ?x2687 13)))
 (let ((?x1193 (ite $x2886 5 (ite $x786 4 (ite $x899 3 (ite $x889 2 1))))))
 (let ((?x556 (ite $x661 9 (ite $x234 8 (ite $x1420 7 (ite $x1708 6 ?x1193))))))
 (let ((?x1302 (ite $x2194 12 (ite $x2364 11 (ite $x837 10 ?x556)))))
 (let ((?x676 (+ ?x1302 ?x3436)))
 (let ((?x2860 (- ?x676 1)))
 (let ((?x2171 (+ (mod ?x2860 12) 1)))
 (let ((?x3303 (ite (or (= ?x2171 4) (= ?x2171 6) (= ?x2171 9) (= ?x2171 11)) 30 31)))
 (let (($x3420 (and (= (mod (+ ?x711 (+ 0 (div ?x2860 12))) 4) 0) (and (distinct (mod (+ ?x711 (+ 0 (div ?x2860 12))) 100) 0) true))))
 (let (($x3490 (or $x3420 (= (mod (+ ?x711 (+ 0 (div ?x2860 12))) 400) 0))))
 (let ((?x1426 (ite (= ?x2171 2) (ite $x3490 29 28) ?x3303)))
 (let (($x494 (> 1 ?x649)))
 (let ((?x313 (ite $x494 1 (ite (> ?x649 ?x1426) ?x1426 ?x649))))
 (let ((?x2247 (ite (> 1 ?x313) 1 (ite (> ?x313 ?x1426) ?x1426 ?x313))))
 (let ((?x588 (ite (= 2 ?x2171) (ite $x3490 31 31) (ite (= 1 ?x2171) (ite $x3490 0 0) 0))))
 (let ((?x1802 (ite (= 4 ?x2171) (ite $x3490 91 90) (ite (= 3 ?x2171) (ite $x3490 60 59) ?x588))))
 (let ((?x3035 (ite (= 6 ?x2171) (ite $x3490 152 151) (ite (= 5 ?x2171) (ite $x3490 121 120) ?x1802))))
 (let ((?x2922 (ite (= 8 ?x2171) (ite $x3490 213 212) (ite (= 7 ?x2171) (ite $x3490 182 181) ?x3035))))
 (let ((?x1029 (ite (= 10 ?x2171) (ite $x3490 274 273) (ite (= 9 ?x2171) (ite $x3490 244 243) ?x2922))))
 (let ((?x2447 (ite (= 12 ?x2171) (ite $x3490 335 334) (ite (= 11 ?x2171) (ite $x3490 305 304) ?x1029))))
 (let ((?x3357 (+ (* 365 (- (+ ?x711 (+ 0 (div ?x2860 12))) 1)) (div (- (+ ?x711 (+ 0 (div ?x2860 12))) 1) 4))))
 (let ((?x2357 (+ (- ?x3357 (div (- (+ ?x711 (+ 0 (div ?x2860 12))) 1) 100)) (div (- (+ ?x711 (+ 0 (div ?x2860 12))) 1) 400))))
 (let ((?x1896 (+ (+ (- (+ (+ ?x2357 ?x2447) (- ?x2247 1)) 730179) 40) 730179)))
 (let ((?x2678 (mod ?x1896 146097)))
 (let ((?x2387 (div ?x2678 36524)))
 (let ((?x892 (ite (<= 4 ?x2387) 3 ?x2387)))
 (let ((?x1295 (- ?x2678 (* ?x892 36524))))
 (let ((?x1332 (mod ?x1295 1461)))
 (let ((?x1276 (div ?x1332 365)))
 (let ((?x871 (ite (<= 4 ?x1276) 3 ?x1276)))
 (let ((?x2741 (+ (+ (* (div ?x1896 146097) 400) (* ?x892 100)) (* (div ?x1295 1461) 4))))
 (let ((?x2599 (+ (+ ?x2741 ?x871) 1)))
 (let ((?x1338 (+ 0 (div ?x2860 12))))
 (let ((?x2059 (+ ?x711 ?x1338)))
 (let (($x677 (= 40 0)))
 (let ((?x4062 (ite $x677 ?x2059 ?x2599)))
 (= x_plus_year ?x4062)))))))))))))))))))))))))))))))))))))))))))))))))))))))))))))))))))))))))))))))
(assert
 (let ((?x1885 (+ x_epoch 730179)))
 (let ((?x955 (mod ?x1885 146097)))
 (let ((?x3291 (div ?x955 36524)))
 (let ((?x2830 (ite (<= 4 ?x3291) 3 ?x3291)))
 (let ((?x785 (- ?x955 (* ?x2830 36524))))
 (let ((?x456 (mod ?x785 1461)))
 (let ((?x2088 (div ?x456 365)))
 (let ((?x374 (ite (<= 4 ?x2088) 3 ?x2088)))
 (let ((?x1234 (+ (+ (* (div ?x1885 146097) 400) (* ?x2830 100)) (* (div ?x785 1461) 4))))
 (let ((?x711 (+ (+ ?x1234 ?x374) 1)))
 (let (($x976 (or (and (= (mod ?x711 4) 0) (and (distinct (mod ?x711 100) 0) true)) (= (mod ?x711 400) 0))))
 (let ((?x678 (- ?x456 (* ?x374 365))))
 (let ((?x2492 (ite $x976 31 31)))
 (let (($x889 (>= ?x678 ?x2492)))
 (let ((?x2674 (ite $x889 (+ (- ?x678 ?x2492) 1) (+ (- ?x678 (ite $x976 0 0)) 1))))
 (let ((?x810 (ite $x976 60 59)))
 (let (($x899 (>= ?x678 ?x810)))
 (let ((?x401 (ite $x976 91 90)))
 (let (($x786 (>= ?x678 ?x401)))
 (let ((?x2597 (ite $x786 (+ (- ?x678 ?x401) 1) (ite $x899 (+ (- ?x678 ?x810) 1) ?x2674))))
 (let ((?x528 (ite $x976 121 120)))
 (let (($x2886 (>= ?x678 ?x528)))
 (let ((?x896 (ite $x976 152 151)))
 (let (($x1708 (>= ?x678 ?x896)))
 (let ((?x280 (ite $x1708 (+ (- ?x678 ?x896) 1) (ite $x2886 (+ (- ?x678 ?x528) 1) ?x2597))))
 (let ((?x256 (ite $x976 182 181)))
 (let (($x1420 (>= ?x678 ?x256)))
 (let ((?x567 (ite $x976 213 212)))
 (let (($x234 (>= ?x678 ?x567)))
 (let ((?x2628 (ite $x234 (+ (- ?x678 ?x567) 1) (ite $x1420 (+ (- ?x678 ?x256) 1) ?x280))))
 (let ((?x1440 (ite $x976 244 243)))
 (let (($x661 (>= ?x678 ?x1440)))
 (let ((?x229 (ite $x976 274 273)))
 (let (($x837 (>= ?x678 ?x229)))
 (let ((?x801 (ite $x837 (+ (- ?x678 ?x229) 1) (ite $x661 (+ (- ?x678 ?x1440) 1) ?x2628))))
 (let ((?x1705 (ite $x976 305 304)))
 (let (($x2364 (>= ?x678 ?x1705)))
 (let ((?x2685 (ite $x976 335 334)))
 (let (($x2194 (>= ?x678 ?x2685)))
 (let ((?x649 (ite $x2194 (+ (- ?x678 ?x2685) 1) (ite $x2364 (+ (- ?x678 ?x1705) 1) ?x801))))
 (let ((?x2687 (* 0 12)))
 (let ((?x3436 (+ ?x2687 13)))
 (let ((?x1193 (ite $x2886 5 (ite $x786 4 (ite $x899 3 (ite $x889 2 1))))))
 (let ((?x556 (ite $x661 9 (ite $x234 8 (ite $x1420 7 (ite $x1708 6 ?x1193))))))
 (let ((?x1302 (ite $x2194 12 (ite $x2364 11 (ite $x837 10 ?x556)))))
 (let ((?x676 (+ ?x1302 ?x3436)))
 (let ((?x2860 (- ?x676 1)))
 (let ((?x2171 (+ (mod ?x2860 12) 1)))
 (let ((?x3303 (ite (or (= ?x2171 4) (= ?x2171 6) (= ?x2171 9) (= ?x2171 11)) 30 31)))
 (let (($x3420 (and (= (mod (+ ?x711 (+ 0 (div ?x2860 12))) 4) 0) (and (distinct (mod (+ ?x711 (+ 0 (div ?x2860 12))) 100) 0) true))))
 (let (($x3490 (or $x3420 (= (mod (+ ?x711 (+ 0 (div ?x2860 12))) 400) 0))))
 (let ((?x1426 (ite (= ?x2171 2) (ite $x3490 29 28) ?x3303)))
 (let (($x494 (> 1 ?x649)))
 (let ((?x313 (ite $x494 1 (ite (> ?x649 ?x1426) ?x1426 ?x649))))
 (let ((?x2247 (ite (> 1 ?x313) 1 (ite (> ?x313 ?x1426) ?x1426 ?x313))))
 (let ((?x588 (ite (= 2 ?x2171) (ite $x3490 31 31) (ite (= 1 ?x2171) (ite $x3490 0 0) 0))))
 (let ((?x1802 (ite (= 4 ?x2171) (ite $x3490 91 90) (ite (= 3 ?x2171) (ite $x3490 60 59) ?x588))))
 (let ((?x3035 (ite (= 6 ?x2171) (ite $x3490 152 151) (ite (= 5 ?x2171) (ite $x3490 121 120) ?x1802))))
 (let ((?x2922 (ite (= 8 ?x2171) (ite $x3490 213 212) (ite (= 7 ?x2171) (ite $x3490 182 181) ?x3035))))
 (let ((?x1029 (ite (= 10 ?x2171) (ite $x3490 274 273) (ite (= 9 ?x2171) (ite $x3490 244 243) ?x2922))))
 (let ((?x2447 (ite (= 12 ?x2171) (ite $x3490 335 334) (ite (= 11 ?x2171) (ite $x3490 305 304) ?x1029))))
 (let ((?x3357 (+ (* 365 (- (+ ?x711 (+ 0 (div ?x2860 12))) 1)) (div (- (+ ?x711 (+ 0 (div ?x2860 12))) 1) 4))))
 (let ((?x2357 (+ (- ?x3357 (div (- (+ ?x711 (+ 0 (div ?x2860 12))) 1) 100)) (div (- (+ ?x711 (+ 0 (div ?x2860 12))) 1) 400))))
 (let ((?x1896 (+ (+ (- (+ (+ ?x2357 ?x2447) (- ?x2247 1)) 730179) 40) 730179)))
 (let ((?x2678 (mod ?x1896 146097)))
 (let ((?x2387 (div ?x2678 36524)))
 (let ((?x892 (ite (<= 4 ?x2387) 3 ?x2387)))
 (let ((?x1295 (- ?x2678 (* ?x892 36524))))
 (let ((?x1332 (mod ?x1295 1461)))
 (let ((?x1276 (div ?x1332 365)))
 (let ((?x871 (ite (<= 4 ?x1276) 3 ?x1276)))
 (let ((?x2741 (+ (+ (* (div ?x1896 146097) 400) (* ?x892 100)) (* (div ?x1295 1461) 4))))
 (let ((?x2599 (+ (+ ?x2741 ?x871) 1)))
 (let (($x1892 (or (and (= (mod ?x2599 4) 0) (and (distinct (mod ?x2599 100) 0) true)) (= (mod ?x2599 400) 0))))
 (let ((?x1685 (ite $x1892 31 31)))
 (let ((?x1771 (- ?x1332 (* ?x871 365))))
 (let (($x2795 (>= ?x1771 ?x1685)))
 (let ((?x2766 (ite $x1892 60 59)))
 (let (($x4089 (>= ?x1771 ?x2766)))
 (let ((?x3106 (ite $x1892 91 90)))
 (let (($x4092 (>= ?x1771 ?x3106)))
 (let ((?x1498 (ite $x1892 121 120)))
 (let (($x4091 (>= ?x1771 ?x1498)))
 (let ((?x1921 (ite $x4091 5 (ite $x4092 4 (ite $x4089 3 (ite $x2795 2 1))))))
 (let ((?x2761 (ite $x1892 152 151)))
 (let (($x3011 (>= ?x1771 ?x2761)))
 (let ((?x4101 (ite $x1892 182 181)))
 (let (($x1450 (>= ?x1771 ?x4101)))
 (let ((?x4102 (ite $x1892 213 212)))
 (let (($x3037 (>= ?x1771 ?x4102)))
 (let ((?x4104 (ite $x1892 244 243)))
 (let (($x4078 (>= ?x1771 ?x4104)))
 (let ((?x4079 (ite $x4078 9 (ite $x3037 8 (ite $x1450 7 (ite $x3011 6 ?x1921))))))
 (let ((?x2132 (ite $x1892 274 273)))
 (let (($x4081 (>= ?x1771 ?x2132)))
 (let ((?x4103 (ite $x1892 305 304)))
 (let (($x4082 (>= ?x1771 ?x4103)))
 (let ((?x2007 (ite $x1892 335 334)))
 (let (($x4084 (>= ?x1771 ?x2007)))
 (let ((?x4085 (ite $x4084 12 (ite $x4082 11 (ite $x4081 10 ?x4079)))))
 (let (($x677 (= 40 0)))
 (let ((?x3573 (ite $x677 ?x2171 ?x4085)))
 (= x_plus_month ?x3573))))))))))))))))))))))))))))))))))))))))))))))))))))))))))))))))))))))))))))))))))))))))))))))))))))))))
(assert
 (let ((?x1885 (+ x_epoch 730179)))
 (let ((?x955 (mod ?x1885 146097)))
 (let ((?x3291 (div ?x955 36524)))
 (let ((?x2830 (ite (<= 4 ?x3291) 3 ?x3291)))
 (let ((?x785 (- ?x955 (* ?x2830 36524))))
 (let ((?x456 (mod ?x785 1461)))
 (let ((?x2088 (div ?x456 365)))
 (let ((?x374 (ite (<= 4 ?x2088) 3 ?x2088)))
 (let ((?x1234 (+ (+ (* (div ?x1885 146097) 400) (* ?x2830 100)) (* (div ?x785 1461) 4))))
 (let ((?x711 (+ (+ ?x1234 ?x374) 1)))
 (let (($x976 (or (and (= (mod ?x711 4) 0) (and (distinct (mod ?x711 100) 0) true)) (= (mod ?x711 400) 0))))
 (let ((?x678 (- ?x456 (* ?x374 365))))
 (let ((?x2492 (ite $x976 31 31)))
 (let (($x889 (>= ?x678 ?x2492)))
 (let ((?x2674 (ite $x889 (+ (- ?x678 ?x2492) 1) (+ (- ?x678 (ite $x976 0 0)) 1))))
 (let ((?x810 (ite $x976 60 59)))
 (let (($x899 (>= ?x678 ?x810)))
 (let ((?x401 (ite $x976 91 90)))
 (let (($x786 (>= ?x678 ?x401)))
 (let ((?x2597 (ite $x786 (+ (- ?x678 ?x401) 1) (ite $x899 (+ (- ?x678 ?x810) 1) ?x2674))))
 (let ((?x528 (ite $x976 121 120)))
 (let (($x2886 (>= ?x678 ?x528)))
 (let ((?x896 (ite $x976 152 151)))
 (let (($x1708 (>= ?x678 ?x896)))
 (let ((?x280 (ite $x1708 (+ (- ?x678 ?x896) 1) (ite $x2886 (+ (- ?x678 ?x528) 1) ?x2597))))
 (let ((?x256 (ite $x976 182 181)))
 (let (($x1420 (>= ?x678 ?x256)))
 (let ((?x567 (ite $x976 213 212)))
 (let (($x234 (>= ?x678 ?x567)))
 (let ((?x2628 (ite $x234 (+ (- ?x678 ?x567) 1) (ite $x1420 (+ (- ?x678 ?x256) 1) ?x280))))
 (let ((?x1440 (ite $x976 244 243)))
 (let (($x661 (>= ?x678 ?x1440)))
 (let ((?x229 (ite $x976 274 273)))
 (let (($x837 (>= ?x678 ?x229)))
 (let ((?x801 (ite $x837 (+ (- ?x678 ?x229) 1) (ite $x661 (+ (- ?x678 ?x1440) 1) ?x2628))))
 (let ((?x1705 (ite $x976 305 304)))
 (let (($x2364 (>= ?x678 ?x1705)))
 (let ((?x2685 (ite $x976 335 334)))
 (let (($x2194 (>= ?x678 ?x2685)))
 (let ((?x649 (ite $x2194 (+ (- ?x678 ?x2685) 1) (ite $x2364 (+ (- ?x678 ?x1705) 1) ?x801))))
 (let ((?x2687 (* 0 12)))
 (let ((?x3436 (+ ?x2687 13)))
 (let ((?x1193 (ite $x2886 5 (ite $x786 4 (ite $x899 3 (ite $x889 2 1))))))
 (let ((?x556 (ite $x661 9 (ite $x234 8 (ite $x1420 7 (ite $x1708 6 ?x1193))))))
 (let ((?x1302 (ite $x2194 12 (ite $x2364 11 (ite $x837 10 ?x556)))))
 (let ((?x676 (+ ?x1302 ?x3436)))
 (let ((?x2860 (- ?x676 1)))
 (let ((?x2171 (+ (mod ?x2860 12) 1)))
 (let ((?x3303 (ite (or (= ?x2171 4) (= ?x2171 6) (= ?x2171 9) (= ?x2171 11)) 30 31)))
 (let (($x3420 (and (= (mod (+ ?x711 (+ 0 (div ?x2860 12))) 4) 0) (and (distinct (mod (+ ?x711 (+ 0 (div ?x2860 12))) 100) 0) true))))
 (let (($x3490 (or $x3420 (= (mod (+ ?x711 (+ 0 (div ?x2860 12))) 400) 0))))
 (let ((?x1426 (ite (= ?x2171 2) (ite $x3490 29 28) ?x3303)))
 (let (($x494 (> 1 ?x649)))
 (let ((?x313 (ite $x494 1 (ite (> ?x649 ?x1426) ?x1426 ?x649))))
 (let ((?x2247 (ite (> 1 ?x313) 1 (ite (> ?x313 ?x1426) ?x1426 ?x313))))
 (let ((?x588 (ite (= 2 ?x2171) (ite $x3490 31 31) (ite (= 1 ?x2171) (ite $x3490 0 0) 0))))
 (let ((?x1802 (ite (= 4 ?x2171) (ite $x3490 91 90) (ite (= 3 ?x2171) (ite $x3490 60 59) ?x588))))
 (let ((?x3035 (ite (= 6 ?x2171) (ite $x3490 152 151) (ite (= 5 ?x2171) (ite $x3490 121 120) ?x1802))))
 (let ((?x2922 (ite (= 8 ?x2171) (ite $x3490 213 212) (ite (= 7 ?x2171) (ite $x3490 182 181) ?x3035))))
 (let ((?x1029 (ite (= 10 ?x2171) (ite $x3490 274 273) (ite (= 9 ?x2171) (ite $x3490 244 243) ?x2922))))
 (let ((?x2447 (ite (= 12 ?x2171) (ite $x3490 335 334) (ite (= 11 ?x2171) (ite $x3490 305 304) ?x1029))))
 (let ((?x3357 (+ (* 365 (- (+ ?x711 (+ 0 (div ?x2860 12))) 1)) (div (- (+ ?x711 (+ 0 (div ?x2860 12))) 1) 4))))
 (let ((?x2357 (+ (- ?x3357 (div (- (+ ?x711 (+ 0 (div ?x2860 12))) 1) 100)) (div (- (+ ?x711 (+ 0 (div ?x2860 12))) 1) 400))))
 (let ((?x1896 (+ (+ (- (+ (+ ?x2357 ?x2447) (- ?x2247 1)) 730179) 40) 730179)))
 (let ((?x2678 (mod ?x1896 146097)))
 (let ((?x2387 (div ?x2678 36524)))
 (let ((?x892 (ite (<= 4 ?x2387) 3 ?x2387)))
 (let ((?x1295 (- ?x2678 (* ?x892 36524))))
 (let ((?x1332 (mod ?x1295 1461)))
 (let ((?x1276 (div ?x1332 365)))
 (let ((?x871 (ite (<= 4 ?x1276) 3 ?x1276)))
 (let ((?x2741 (+ (+ (* (div ?x1896 146097) 400) (* ?x892 100)) (* (div ?x1295 1461) 4))))
 (let ((?x2599 (+ (+ ?x2741 ?x871) 1)))
 (let (($x1892 (or (and (= (mod ?x2599 4) 0) (and (distinct (mod ?x2599 100) 0) true)) (= (mod ?x2599 400) 0))))
 (let ((?x1771 (- ?x1332 (* ?x871 365))))
 (let ((?x1685 (ite $x1892 31 31)))
 (let (($x2795 (>= ?x1771 ?x1685)))
 (let ((?x4066 (ite $x2795 (+ (- ?x1771 ?x1685) 1) (+ (- ?x1771 (ite $x1892 0 0)) 1))))
 (let ((?x2766 (ite $x1892 60 59)))
 (let (($x4089 (>= ?x1771 ?x2766)))
 (let ((?x3106 (ite $x1892 91 90)))
 (let (($x4092 (>= ?x1771 ?x3106)))
 (let ((?x2705 (ite $x4092 (+ (- ?x1771 ?x3106) 1) (ite $x4089 (+ (- ?x1771 ?x2766) 1) ?x4066))))
 (let ((?x1498 (ite $x1892 121 120)))
 (let (($x4091 (>= ?x1771 ?x1498)))
 (let ((?x2761 (ite $x1892 152 151)))
 (let (($x3011 (>= ?x1771 ?x2761)))
 (let ((?x2968 (ite $x3011 (+ (- ?x1771 ?x2761) 1) (ite $x4091 (+ (- ?x1771 ?x1498) 1) ?x2705))))
 (let ((?x4101 (ite $x1892 182 181)))
 (let (($x1450 (>= ?x1771 ?x4101)))
 (let ((?x4102 (ite $x1892 213 212)))
 (let (($x3037 (>= ?x1771 ?x4102)))
 (let ((?x780 (ite $x3037 (+ (- ?x1771 ?x4102) 1) (ite $x1450 (+ (- ?x1771 ?x4101) 1) ?x2968))))
 (let ((?x4104 (ite $x1892 244 243)))
 (let (($x4078 (>= ?x1771 ?x4104)))
 (let ((?x2132 (ite $x1892 274 273)))
 (let (($x4081 (>= ?x1771 ?x2132)))
 (let ((?x3572 (ite $x4081 (+ (- ?x1771 ?x2132) 1) (ite $x4078 (+ (- ?x1771 ?x4104) 1) ?x780))))
 (let ((?x4103 (ite $x1892 305 304)))
 (let (($x4082 (>= ?x1771 ?x4103)))
 (let ((?x2007 (ite $x1892 335 334)))
 (let (($x4084 (>= ?x1771 ?x2007)))
 (let ((?x4061 (ite $x4084 (+ (- ?x1771 ?x2007) 1) (ite $x4082 (+ (- ?x1771 ?x4103) 1) ?x3572))))
 (let (($x677 (= 40 0)))
 (let ((?x3574 (ite $x677 ?x2247 ?x4061)))
 (= x_plus_day ?x3574)))))))))))))))))))))))))))))))))))))))))))))))))))))))))))))))))))))))))))))))))))))))))))))))))))))))))))
(assert
 (= y_epoch x_plus_epoch))
(assert
 (not (= y_epoch 8395)))
(check-sat)
